instances/A-n12-k4-m3-b1ampl_.txt
set K:= 1	2	3	4;
set C_H:= 1	2	3;
set C_S:= 4	5	6	7;
set C_F:= 8	9	10	11;
set M:= 12	13	14	15	16	17;
set L_B:= 18;
set A1:=
(0,*) 1 2 3 8 9 10 11 12 13 14 15 16 17 18 19
(1,*) 0 2 3 8 9 10 11 12 13 14 15 16 17 18 19
(2,*) 0 1 3 8 9 10 11 12 13 14 15 16 17 18 19
(3,*) 0 1 2 8 9 10 11 12 13 14 15 16 17 18 19
(8,*) 0 1 2 3 9 10 11 12 13 14 15 16 17 18 19
(9,*) 0 1 2 3 8 10 11 12 13 14 15 16 17 18 19
(10,*) 0 1 2 3 8 9 11 12 13 14 15 16 17 18 19
(11,*) 0 1 2 3 8 9 10 12 13 14 15 16 17 18 19
(12,*) 0 1 2 3 8 9 10 11 13 14 15 16 17 18 19
(13,*) 0 1 2 3 8 9 10 11 12 14 15 16 17 18 19
(14,*) 0 1 2 3 8 9 10 11 12 13 15 16 17 18 19
(15,*) 0 1 2 3 8 9 10 11 12 13 14 16 17 18 19
(16,*) 0 1 2 3 8 9 10 11 12 13 14 15 17 18 19
(17,*) 0 1 2 3 8 9 10 11 12 13 14 15 16 18 19
(18,*) 0 1 2 3 8 9 10 11 12 13 14 15 16 17 19
(19,*) 0 1 2 3 8 9 10 11 12 13 14 15 16 17 18
;
set A2:=
(12,*) 13
(13,*) 12
(14,*) 15
(15,*) 14
(16,*) 17
(17,*) 16
;
param BigM:=99999;
param n:= 4;
param d:=
1	13
2	13
3	12
4	2
5	24
6	7
7	17
8	23
9	10
10	12
11	20
;
param Q:=100;
param w:=
[12,*] 13 2
[13,*] 12 2
[14,*] 15 2
[15,*] 14 2
[16,*] 17 2
[17,*] 16 2
;
param V:=
[12,*] 13 83
[13,*] 12 83
[14,*] 15 100
[15,*] 14 100
[16,*] 17 94
[17,*] 16 94
;
param e:
	12	13	14	15	16	17	18:=
4		0		1		1		0		0		1		0	
5		0		0		1		0		0		0		0	
6		0		0		1		0		0		1		0	
7		0		0		1		0		0		1		0	
8		0		0		0		0		0		0		1	
9		0		0		0		1		0		0		0	
10		0		1		0		0		0		0		0	
11		0		0		1		0		0		1		0	
;
param p:=
1	1
2	1
3	1
4	1
;
param G:=
12	81
13	83
14	100
15	99
16	94
17	86
18	79
;
param s:=
0	0
1	10
2	10
3	10
8	10
9	10
10	10
11	10
12	10
13	10
14	10
15	10
16	10
17	10
18	10
;
param t:
	0	1	2	3	4	5	6	7	8	9	10	11	12	13	14	15	16	17	18	19:=
0	0.0	11.66	19.92	17.0	75.5	81.15	87.09	61.47	78.23	69.35	101.83	75.06	27.29	102.07	80.01	70.11	15.52	80.52	73.16	0.0
1	11.66	0.0	29.68	9.22	80.16	87.14	94.05	64.33	69.05	60.42	99.81	81.3	19.72	100.69	86.7	60.83	11.18	84.59	64.43	11.66
2	19.92	29.68	0.0	29.83	58.87	62.97	68.03	47.8	85.0	75.95	94.05	56.72	36.25	93.24	61.2	77.47	25.81	64.47	79.12	19.92
3	17.0	9.22	29.83	0.0	74.03	81.88	89.5	57.31	61.29	52.47	90.8	76.3	10.77	91.81	82.0	53.15	4.47	78.06	56.34	17.0
4	75.5	80.16	58.87	74.03	0.0	12.21	23.02	18.79	92.7	86.05	56.01	12.04	71.02	52.09	17.09	89.02	70.0	6.4	86.47	75.5
5	81.15	87.14	62.97	81.88	12.21	0.0	10.82	30.0	104.66	97.84	66.48	6.32	80.08	62.13	6.08	100.77	77.65	15.3	98.39	81.15
6	87.09	94.05	68.03	89.5	23.02	10.82	0.0	40.36	115.26	108.3	76.3	13.89	88.6	71.7	7.62	111.2	85.15	25.63	108.96	87.09
7	61.47	64.33	47.8	57.31	18.79	30.0	40.36	0.0	75.01	67.94	50.6	26.91	53.15	48.33	33.24	70.84	53.6	21.21	68.67	61.47
8	78.23	69.05	85.0	61.29	92.7	104.66	115.26	75.01	0.0	9.06	67.36	101.91	51.04	71.85	108.25	8.25	63.03	92.46	6.46	78.23
9	69.35	60.42	75.95	52.47	86.05	97.84	108.3	67.94	9.06	0.0	66.03	94.76	42.11	70.03	101.14	3.16	54.08	86.27	4.31	69.35
10	101.83	99.81	94.05	90.8	56.01	66.48	76.3	50.6	67.36	66.03	0.0	68.03	81.84	5.66	72.34	69.01	88.87	51.24	63.56	101.83
11	75.06	81.3	56.72	76.3	12.04	6.32	13.89	26.91	101.91	94.76	68.03	0.0	74.95	64.03	6.4	97.62	72.01	17.26	95.57	75.06
12	27.29	19.72	36.25	10.77	71.02	80.08	88.6	53.15	51.04	42.11	81.84	74.95	0.0	83.24	80.99	43.0	12.0	74.33	45.87	27.29
13	102.07	100.69	93.24	91.81	52.09	62.13	71.7	48.33	71.85	70.03	5.66	64.03	83.24	0.0	68.07	73.06	89.63	47.01	67.77	102.07
14	80.01	86.7	61.2	82.0	17.09	6.08	7.62	33.24	108.25	101.14	72.34	6.4	80.99	68.07	0.0	104.0	77.67	21.1	101.91	80.01
15	70.11	60.83	77.47	53.15	89.02	100.77	111.2	70.84	8.25	3.16	69.01	97.62	43.0	73.06	104.0	0.0	55.0	89.31	6.02	70.11
16	15.52	11.18	25.81	4.47	70.0	77.65	85.15	53.6	63.03	54.08	88.87	72.01	12.0	89.63	77.67	55.0	0.0	74.17	57.8	15.52
17	80.52	84.59	64.47	78.06	6.4	15.3	25.63	21.21	92.46	86.27	51.24	17.26	74.33	47.01	21.1	89.31	74.17	0.0	86.37	80.52
18	73.16	64.43	79.12	56.34	86.47	98.39	108.96	68.67	6.46	4.31	63.56	95.57	45.87	67.77	101.91	6.02	57.8	86.37	0.0	73.16
;
