ampl_outputs/A-n12-k4-m3-b1ampl_.txt.out
Gurobi 12.0.3:   lim:time = 14400

  mip:bestbound = 1

Set parameter LogToConsole to value 1

  tech:outlev = 1

Set parameter Cuts to value 3

  cut:cuts = 3

Set parameter Presolve to value 2

  pre:solve = 2

Set parameter MIPFocus to value 2

  mip:focus = 2

Set parameter Symmetry to value 2

  mip:symmetry = 2

Set parameter InfUnbdInfo to value 1

Gurobi Optimizer version 12.0.3 build v12.0.3rc0 (win64 - Windows 11+.0 (26200.2))



CPU model: 13th Gen Intel(R) Core(TM) i7-13700K, instruction set [SSE2|AVX|AVX2]

Thread count: 16 physical cores, 24 logical processors, using up to 24 threads



Non-default parameters:

TimeLimit  14400

MIPFocus  2

Symmetry  2

Cuts  3

InfUnbdInfo  1

Presolve  2



Optimize a model with 421 rows, 854 columns and 4834 nonzeros

Model fingerprint: 0x0d496e6a

Model has 4 quadratic objective terms

Model has 10 quadratic constraints

Variable types: 35 continuous, 819 integer (0 binary)

Coefficient statistics:

  Matrix range     [1e+00, 1e+05]

  QMatrix range    [1e+00, 1e+00]

  QLMatrix range   [1e+00, 1e+01]

  Objective range  [3e+00, 1e+02]

  QObjective range [2e+00, 2e+00]

  Bounds range     [1e+00, 1e+02]

  RHS range        [1e+00, 1e+05]

  QRHS range       [1e+02, 1e+02]

Presolve removed 36 rows and 101 columns

Presolve time: 0.17s

Presolved: 976 rows, 1283 columns, 7517 nonzeros

Variable types: 213 continuous, 1070 integer (971 binary)

Root relaxation presolve removed 20 rows and 0 columns

Root relaxation presolved: 660 rows, 1040 columns, 9110 nonzeros





Root relaxation: objective 8.889703e+01, 125 iterations, 0.01 seconds (0.01 work units)



    Nodes    |    Current Node    |     Objective Bounds      |     Work

 Expl Unexpl |  Obj  Depth IntInf | Incumbent    BestBd   Gap | It/Node Time



     0     0   88.89703    0   44          -   88.89703      -     -    0s

H    0     0                     603.4900000   90.53653  85.0%     -    0s

H    0     0                     529.1900000  137.70196  74.0%     -    0s

H    0     0                     436.9400000  137.70196  68.5%     -    0s

     0     0  147.90159    0   48  436.94000  147.90159  66.2%     -    0s

     0     0  147.90159    0   49  436.94000  147.90159  66.2%     -    0s

H    0     0                     436.6900000  147.90159  66.1%     -    0s

H    0     0                     420.5500000  147.90159  64.8%     -    0s

H    0     0                     386.5500000  147.90159  61.7%     -    0s

     0     0  154.43110    0   46  386.55000  154.43110  60.0%     -    0s

     0     0  154.43110    0   54  386.55000  154.43110  60.0%     -    0s

     0     0  154.43110    0   42  386.55000  154.43110  60.0%     -    0s

H    0     0                     377.4900000  154.43110  59.1%     -    0s

H    0     0                     376.0100000  154.43110  58.9%     -    0s

H    0     0                     308.9000000  154.59192  50.0%     -    0s

     0     0  158.84195    0   28  308.90000  158.84195  48.6%     -    0s

     0     0  158.84195    0   68  308.90000  158.84195  48.6%     -    0s

     0     0  158.84195    0   38  308.90000  158.84195  48.6%     -    0s

     0     0  158.84195    0   81  308.90000  158.84195  48.6%     -    0s

H    0     0                     302.9200000  158.84195  47.6%     -    0s

     0     0  170.54313    0   59  302.92000  170.54313  43.7%     -    0s

     0     0  170.54313    0   59  302.92000  170.54313  43.7%     -    1s

     0     2  171.14790    0   59  302.92000  171.14790  43.5%     -    1s

H   67   100                     302.3700000  175.04000  42.1%  33.4    1s

*  829   540              34     297.0100000  178.52905  39.9%  13.9    1s

* 1862   756              24     296.8500000  188.89333  36.4%  13.3    1s

* 2104   759              32     296.4300000  191.89612  35.3%  13.3    1s

* 2136   759              29     295.9500000  191.89612  35.2%  13.3    1s

H 2292   768                     295.4000000  197.47684  33.1%  13.3    1s

 10571  1172  292.88750   46   35  295.40000  238.06738  19.4%  19.3    5s



Cutting planes:

  Learned: 7

  Gomory: 21

  Lift-and-project: 10

  Cover: 11

  Implied bound: 55

  Projected implied bound: 7

  Clique: 20

  MIR: 20

  Mixing: 4

  StrongCG: 1

  Flow cover: 143

  Inf proof: 11

  Zero half: 99

  RLT: 32

  Relax-and-lift: 21



Explored 18103 nodes (354386 simplex iterations) in 5.87 seconds (6.64 work units)

Thread count was 24 (of 24 available processors)



Solution count 10: 295.4 295.95 296.43 ... 377.49



Optimal solution found (tolerance 1.00e-04)

Best objective 2.954000000000e+02, best bound 2.954000000000e+02, gap 0.0000%



AMPL MP initial flat model has 854 variables (0 integer, 819 binary);

Objectives: 1 quadratic; 

Constraints:  421 linear; 10 quadratic;



AMPL MP final model has 854 variables (0 integer, 819 binary);

Objectives: 1 quadratic; 

Constraints:  421 linear; 10 quadratic;





-----RESULTS INFO-----
running_time:  5.953
TC.best_bound:  295.4
TC:  295.3999999999999
MIP Gap (%):  1.9242863527693985e-14
=== Vehicle Routes ===
Vehicle 1: 0 → 1
Vehicle 1: 1 → 15
Vehicle 1: 3 → 19
Vehicle 1: 12 → 3
Vehicle 1: 15 → 18
Vehicle 1: 18 → 12
Vehicle 2: 0 → 2
Vehicle 2: 2 → 16
Vehicle 2: 16 → 19
Vehicle 3: 0 → 19
Vehicle 4: 0 → 19

=== Full Vehicle Routes ===
Vehicle 1: 0 → 1 → 15 → 18 → 12 → 3 → 0 (96<100)
Vehicle 2: 0 → 2 → 16 → 0 (57<100)
Vehicle 3: 0 → 0 (0<100)
Vehicle 4: 0 → 0 (0<100)
Arc used by MRT line: y variables:
MRT used: 12 → 13
MRT used: 15 → 14
MRT used: 16 → 17
Customer assigment to PL: u variables:
4 14
5 14
6 17
7 17
8 18
9 15
10 13
11 17
Node is served by regular vehicle: g variables:
1
2
3
18
12
15
16
Customer assigment to Home delivery: gm variables:
1
2
3
Node total demands: ntd variables:
1 13 1
2 13 1
3 12 1
8 0 0
9 0 0
10 0 0
11 0 0
18 23 1
12 12 1
13 0 0
14 0 0
15 36 1
16 44 1
17 0 0
Customer's demand delivered to PL: l variables:
4
5
6
7
8
9
10
11
Lockers load <= capacity:
23 <= 79
0 <= 81
12 <= 83
26 <= 100
10 <= 99
0 <= 94
44 <= 86
